(declare-const X String)
; /nim:import\?[^\x22\x27>\s]*?filename=[^\x22\x27>\s]{485}/i
(assert (not (str.in_re X (re.++ (str.to_re "/nim:import?") (re.* (re.union (str.to_re "\u{22}") (str.to_re "'") (str.to_re ">") (str.to_re " ") (str.to_re "\u{9}") (str.to_re "\u{a}") (str.to_re "\u{c}") (str.to_re "\u{d}"))) (str.to_re "filename=") ((_ re.loop 485 485) (re.union (str.to_re "\u{22}") (str.to_re "'") (str.to_re ">") (str.to_re " ") (str.to_re "\u{9}") (str.to_re "\u{a}") (str.to_re "\u{c}") (str.to_re "\u{d}"))) (str.to_re "/i\u{a}")))))
; /filename=[^\n]*\x2epor/i
(assert (str.in_re X (re.++ (str.to_re "/filename=") (re.* (re.comp (str.to_re "\u{a}"))) (str.to_re ".por/i\u{a}"))))
; /^dns\x7c\d+\x7c\d+\x7C[a-z0-9]+\x2E[a-z]{2,3}\x7C[a-z0-9]+\x7C/
(assert (not (str.in_re X (re.++ (str.to_re "/dns|") (re.+ (re.range "0" "9")) (str.to_re "|") (re.+ (re.range "0" "9")) (str.to_re "|") (re.+ (re.union (re.range "a" "z") (re.range "0" "9"))) (str.to_re ".") ((_ re.loop 2 3) (re.range "a" "z")) (str.to_re "|") (re.+ (re.union (re.range "a" "z") (re.range "0" "9"))) (str.to_re "|/\u{a}")))))
; /filename=[^\n]*\x2emov/i
(assert (str.in_re X (re.++ (str.to_re "/filename=") (re.* (re.comp (str.to_re "\u{a}"))) (str.to_re ".mov/i\u{a}"))))
(check-sat)

(exit)
